(set-info :smt-lib-version 2.6)
(set-logic LRA)
(set-info :source |
   Monniaux, David; Quantifier Elimination by Lazy Model Enumeration, CAV 2010
|)
(set-info :category "random")
; ./Mjollnir_examples/B3/formula_244.m
(set-info :status unsat)
(assert
 (forall ((|v11:0| Real) )(forall ((|v10:1| Real) )(forall ((|v9:2| Real) )(forall ((|v8:3| Real) )(exists ((|v7:4| Real) )(exists ((|v6:5| Real) )(exists ((|v5:6| Real) )(exists ((|v4:7| Real) )(forall ((|v3:8| Real) )(forall ((|v2:9| Real) )(forall ((|v1:10| Real) )(forall ((|v0:11| Real) )(let ((?x173 (- 9)))
(let ((?x404 (+ (+ (* 13 |v4:7|) (* 14 |v0:11|)) (* ?x173 |v4:7|))))
(let ((?x10 (- 7)))
(let ((?x396 (+ (+ (* (- 16) |v11:0|) (* ?x10 |v0:11|)) (* 0 |v10:1|))))
(let ((?x295 20))
(let ((?x385 (+ (+ (* (- 18) |v5:6|) (* 4 |v5:6|)) (* 4 |v4:7|))))
(let ((?x83 (- 3)))
(let ((?x379 (+ (+ (+ (* (- 10) |v10:1|) |v0:11|) (* (- 8) |v3:8|)) (* ?x83 |v5:6|))))
(let ((?x121 (- 11)))
(let ((?x371 (+ (+ (* (- 13) |v2:9|) (* (- 12) |v1:10|)) (* 17 |v11:0|))))
(let ((?x135 17))
(let ((?x363 (+ (+ (* (- 2) |v5:6|) (* 18 |v9:2|)) (* (- 15) |v0:11|))))
(let (($x375 (and (<= (+ ?x363 (* (- 19) |v1:10|)) ?x135) (<= (+ ?x371 (* 14 |v7:4|)) ?x121))))
(let (($x390 (or $x375 (and (<= ?x379 ?x83) (<= (+ ?x385 (* 0 |v8:3|)) ?x295)))))
(let ((?x76 (- 13)))
(let ((?x355 (+ (+ (+ (* (- 8) |v3:8|) (* (- 19) |v10:1|)) |v10:1|) (* ?x76 |v5:6|))))
(let ((?x345 (+ (+ (* (- 15) |v5:6|) (* 2 |v6:5|)) (* 11 |v3:8|))))
(let ((?x18 19))
(let ((?x102 (- 2)))
(let ((?x103 (* ?x102 |v6:5|)))
(let ((?x338 (+ (+ (+ (* ?x121 |v0:11|) (* 8 |v9:2|)) ?x103) (* ?x76 |v10:1|))))
(let ((?x31 (- 19)))
(let ((?x330 (+ (+ (* 12 |v4:7|) (* (- 12) |v8:3|)) (* 10 |v11:0|))))
(let (($x358 (or (or (<= (+ ?x330 (* (- 17) |v4:7|)) ?x31) (<= ?x338 ?x18)) (or (<= (+ ?x345 (* 13 |v5:6|)) ?x83) (<= ?x355 ?x76)))))
(let (($x408 (and (and (and $x358 $x390) (<= (+ ?x396 (* (- 4) |v4:7|)) ?x10)) (<= (+ ?x404 (* 18 |v10:1|)) ?x173))))
(let ((?x35 (- 5)))
(let ((?x319 (+ (+ (+ (* ?x295 |v7:4|) (* 3 |v0:11|)) |v3:8|) (* 15 |v7:4|))))
(let ((?x273 (* ?x135 |v6:5|)))
(let (($x314 (<= (+ (+ (+ (* ?x18 |v4:7|) (* 18 |v4:7|)) |v6:5|) ?x273) ?x173)))
(let ((?x132 13))
(let ((?x304 (+ (+ (* ?x18 |v2:9|) (* 9 |v7:4|)) (* (- 4) |v7:4|))))
(let ((?x299 (+ (+ (+ (* 8 |v7:4|) |v1:10|) (* ?x295 |v3:8|)) (* 5 |v10:1|))))
(let (($x322 (or (or (<= ?x299 ?x35) (<= (+ ?x304 (* (- 16) |v9:2|)) ?x132)) (or $x314 (<= ?x319 ?x35)))))
(let ((?x166 (- 4)))
(let ((?x39 14))
(let ((?x285 (* ?x39 |v0:11|)))
(let ((?x288 (+ (+ (+ (* ?x166 |v9:2|) (* 16 |v3:8|)) ?x285) (* 5 |v0:11|))))
(let ((?x26 (- 10)))
(let (($x281 (<= (+ (+ (+ ?x273 (* (- 1) |v9:2|)) |v2:9|) (* ?x121 |v10:1|)) ?x26)))
(let ((?x117 16))
(let ((?x124 (* ?x117 |v6:5|)))
(let ((?x271 (+ (+ (+ (* 3 |v4:7|) (* ?x18 |v5:6|)) ?x124) (* ?x173 |v1:10|))))
(let ((?x262 (+ (+ (+ (* (- 15) |v9:2|) (* ?x26 |v3:8|)) (* ?x76 |v0:11|)) (* (- 18) |v3:8|))))
(let ((?x141 2))
(let ((?x254 (+ (+ (+ (* ?x31 |v8:3|) (* ?x31 |v10:1|)) (* ?x31 |v0:11|)) (* ?x141 |v10:1|))))
(let ((?x94 3))
(let ((?x243 (* ?x94 |v0:11|)))
(let ((?x246 (+ (+ (+ (* (- 6) |v4:7|) (* (- 17) |v9:2|)) ?x243) (* ?x94 |v5:6|))))
(let ((?x64 0))
(let ((?x65 (* ?x64 |v9:2|)))
(let ((?x234 (+ (+ (* (- 6) |v8:3|) (* ?x64 |v1:10|)) (* (- 12) |v0:11|))))
(let ((?x97 (- 6)))
(let ((?x224 (+ (+ (* ?x102 |v2:9|) (* (- 20) |v10:1|)) (* (- 14) |v5:6|))))
(let (($x248 (or (and (<= (+ ?x224 (* ?x135 |v2:9|)) ?x97) (<= (+ ?x234 ?x65) ?x76)) (<= ?x246 ?x10))))
(let (($x324 (and (and $x248 (or (<= ?x254 ?x141) (<= ?x262 ?x121))) (or (and (<= ?x271 6) (and $x281 (<= ?x288 ?x166))) $x322))))
(let ((?x154 4))
(let ((?x214 (+ (+ (+ (* (- 20) |v4:7|) (* ?x132 |v10:1|)) (* ?x166 |v3:8|)) (* (- 15) |v3:8|))))
(let ((?x206 8))
(let ((?x205 (+ (+ (+ (* ?x132 |v3:8|) (* ?x10 |v7:4|)) (* (- 15) |v11:0|)) (* ?x102 |v7:4|))))
(let ((?x192 (* ?x31 |v8:3|)))
(let (($x194 (<= (+ (+ (+ (* ?x117 |v8:3|) (* ?x166 |v6:5|)) (* ?x173 |v9:2|)) ?x192) ?x35)))
(let ((?x185 (+ (+ (+ (* ?x26 |v10:1|) (* ?x35 |v9:2|)) (* ?x26 |v5:6|)) (* ?x64 |v5:6|))))
(let ((?x50 9))
(let ((?x175 (+ (+ (+ (* 7 |v4:7|) (* ?x31 |v2:9|)) |v9:2|) (* ?x173 |v6:5|))))
(let ((?x165 (+ (+ (+ (* ?x117 |v1:10|) (* (- 14) |v10:1|)) (* ?x50 |v6:5|)) (* ?x132 |v9:2|))))
(let ((?x152 (* ?x121 |v0:11|)))
(let ((?x153 (+ (+ (+ (* ?x39 |v8:3|) (* (- 20) |v8:3|)) (* ?x97 |v7:4|)) ?x152)))
(let ((?x143 (+ (+ (+ (* ?x132 |v2:9|) (* ?x135 |v10:1|)) (* 18 |v3:8|)) (* ?x141 |v3:8|))))
(let (($x178 (and (or (<= ?x143 10) (<= ?x153 ?x154)) (or (<= ?x165 ?x166) (<= ?x175 ?x50)))))
(let (($x218 (or $x178 (or (or (<= ?x185 ?x135) $x194) (or (<= ?x205 ?x206) (<= ?x214 ?x154))))))
(let (($x126 (<= (+ (+ (+ (* ?x26 |v0:11|) (* ?x117 |v1:10|)) (* ?x121 |v3:8|)) ?x124) ?x83)))
(let ((?x43 15))
(let ((?x113 (+ (+ (+ (* ?x76 |v6:5|) ?x103) (* (- 16) |v7:4|)) (* 7 |v0:11|))))
(let ((?x96 (+ (+ (+ (* ?x18 |v8:3|) (* 6 |v2:9|)) (* ?x18 |v6:5|)) (* ?x94 |v2:9|))))
(let ((?x82 (+ (+ (+ (* 12 |v10:1|) (* ?x76 |v4:7|)) (* ?x26 |v11:0|)) (* ?x50 |v10:1|))))
(let ((?x67 (- 20)))
(let ((?x61 (+ (+ (* ?x50 |v7:4|) (* 18 |v11:0|)) (* 11 |v1:10|))))
(let ((?x45 (+ (+ (+ (* ?x31 |v4:7|) (* ?x35 |v3:8|)) (* ?x39 |v5:6|)) (* ?x43 |v5:6|))))
(let ((?x25 (+ (+ (+ (* ?x10 |v10:1|) (* 5 |v8:3|)) (* ?x18 |v8:3|)) (* (- 18) |v2:9|))))
(let (($x129 (or (or (<= ?x25 ?x26) (or (<= ?x45 ?x39) (<= (+ ?x61 ?x65) ?x67))) (and (and (<= ?x82 ?x83) (<= ?x96 ?x97)) (and (<= ?x113 ?x43) $x126)))))
(or (or (and $x129 $x218) $x324) $x408))))))))))))))))))))))))))))))))))))))))))))))))))))))))))))))))))))))))))))))))))
)
)
)
)
)
)
)
)
)
)
)
)
(check-sat)
(exit)

